10992.0 1161129.0 
10987.0 1163046.0 
11158.0 1148904.0 
11179.0 1147451.0 
10979.0 1169615.0 
10996.0 1157819.0 
11084.0 1153674.0 
11119.0 1150800.0 
11015.0 1155810.0 
11156.0 1150627.0 
11177.0 1148865.0 
11078.0 1153907.0 
11076.0 1153968.0 
